p cnf 294 2030
1 0
-2 0
-3 0
-4 0
-5 0
-6 0
43 7 0
-43 -7 0
-7 -8 0
-7 -9 0
-7 -10 0
-7 -11 0
-7 -12 0
-8 -9 0
-8 -10 0
-8 -11 0
-8 -12 0
-9 -10 0
-9 -11 0
-9 -12 0
-10 -11 0
-10 -12 0
-11 -12 0
-7 49 1 0
-7 49 13 0
-7 1 13 0
-8 50 2 0
-8 50 14 0
-8 2 14 0
-9 51 3 0
-9 51 15 0
-9 3 15 0
-10 52 4 0
-10 52 16 0
-10 4 16 0
-11 53 5 0
-11 53 17 0
-11 5 17 0
-12 54 6 0
-12 54 18 0
-12 6 18 0
-7 -49 -1 -13 0
-8 -50 -2 -14 0
-9 -51 -3 -15 0
-10 -52 -4 -16 0
-11 -53 -5 -17 0
-12 -54 -6 -18 0
-13 -14 0
-13 -15 0
-13 -16 0
-13 -17 0
-13 -18 0
-14 -15 0
-14 -16 0
-14 -17 0
-14 -18 0
-15 -16 0
-15 -17 0
-15 -18 0
-16 -17 0
-16 -18 0
-17 -18 0
-13 55 7 0
-13 55 19 0
-13 7 19 0
-14 56 8 0
-14 56 20 0
-14 8 20 0
-15 57 9 0
-15 57 21 0
-15 9 21 0
-16 58 10 0
-16 58 22 0
-16 10 22 0
-17 59 11 0
-17 59 23 0
-17 11 23 0
-18 60 12 0
-18 60 24 0
-18 12 24 0
-13 -55 -7 -19 0
-14 -56 -8 -20 0
-15 -57 -9 -21 0
-16 -58 -10 -22 0
-17 -59 -11 -23 0
-18 -60 -12 -24 0
-19 -20 0
-19 -21 0
-19 -22 0
-19 -23 0
-19 -24 0
-20 -21 0
-20 -22 0
-20 -23 0
-20 -24 0
-21 -22 0
-21 -23 0
-21 -24 0
-22 -23 0
-22 -24 0
-23 -24 0
-19 61 13 0
-19 61 25 0
-19 13 25 0
-20 62 14 0
-20 62 26 0
-20 14 26 0
-21 63 15 0
-21 63 27 0
-21 15 27 0
-22 64 16 0
-22 64 28 0
-22 16 28 0
-23 65 17 0
-23 65 29 0
-23 17 29 0
-24 66 18 0
-24 66 30 0
-24 18 30 0
-19 -61 -13 -25 0
-20 -62 -14 -26 0
-21 -63 -15 -27 0
-22 -64 -16 -28 0
-23 -65 -17 -29 0
-24 -66 -18 -30 0
25 0
-26 0
-27 0
-28 0
-29 0
-30 0
67 19 31 0
-67 -19 0
-67 -31 0
-19 -31 0
32 0
-31 0
-33 0
-34 0
-35 0
-36 0
74 26 38 0
-74 -26 0
-74 -38 0
-26 -38 0
-37 -38 0
-37 -39 0
-37 -40 0
-37 -41 0
-37 -42 0
-38 -39 0
-38 -40 0
-38 -41 0
-38 -42 0
-39 -40 0
-39 -41 0
-39 -42 0
-40 -41 0
-40 -42 0
-41 -42 0
-37 79 0
-37 31 0
-38 80 0
-38 32 0
-39 81 0
-39 33 0
-40 82 0
-40 34 0
-41 83 0
-41 35 0
-42 84 0
-42 36 0
48 0
-43 0
-44 0
-45 0
-46 0
-47 0
90 6 54 0
-90 -6 0
-90 -54 0
-6 -54 0
-49 -50 0
-49 -51 0
-49 -52 0
-49 -53 0
-49 -54 0
-50 -51 0
-50 -52 0
-50 -53 0
-50 -54 0
-51 -52 0
-51 -53 0
-51 -54 0
-52 -53 0
-52 -54 0
-53 -54 0
-49 91 7 55 0
-49 91 7 43 0
-49 91 55 43 0
-49 7 55 43 0
-50 92 8 56 0
-50 92 8 44 0
-50 92 56 44 0
-50 8 56 44 0
-51 93 9 57 0
-51 93 9 45 0
-51 93 57 45 0
-51 9 57 45 0
-52 94 10 58 0
-52 94 10 46 0
-52 94 58 46 0
-52 10 58 46 0
-53 95 11 59 0
-53 95 11 47 0
-53 95 59 47 0
-53 11 59 47 0
-54 96 12 60 0
-54 96 12 48 0
-54 96 60 48 0
-54 12 60 48 0
-49 -91 -7 -55 0
-49 -91 -7 -43 0
-49 -91 -55 -43 0
-49 -7 -55 -43 0
-50 -92 -8 -56 0
-50 -92 -8 -44 0
-50 -92 -56 -44 0
-50 -8 -56 -44 0
-51 -93 -9 -57 0
-51 -93 -9 -45 0
-51 -93 -57 -45 0
-51 -9 -57 -45 0
-52 -94 -10 -58 0
-52 -94 -10 -46 0
-52 -94 -58 -46 0
-52 -10 -58 -46 0
-53 -95 -11 -59 0
-53 -95 -11 -47 0
-53 -95 -59 -47 0
-53 -11 -59 -47 0
-54 -96 -12 -60 0
-54 -96 -12 -48 0
-54 -96 -60 -48 0
-54 -12 -60 -48 0
-55 -56 0
-55 -57 0
-55 -58 0
-55 -59 0
-55 -60 0
-56 -57 0
-56 -58 0
-56 -59 0
-56 -60 0
-57 -58 0
-57 -59 0
-57 -60 0
-58 -59 0
-58 -60 0
-59 -60 0
-55 97 13 61 0
-55 97 13 49 0
-55 97 61 49 0
-55 13 61 49 0
-56 98 14 62 0
-56 98 14 50 0
-56 98 62 50 0
-56 14 62 50 0
-57 99 15 63 0
-57 99 15 51 0
-57 99 63 51 0
-57 15 63 51 0
-58 100 16 64 0
-58 100 16 52 0
-58 100 64 52 0
-58 16 64 52 0
-59 101 17 65 0
-59 101 17 53 0
-59 101 65 53 0
-59 17 65 53 0
-60 102 18 66 0
-60 102 18 54 0
-60 102 66 54 0
-60 18 66 54 0
-55 -97 -13 -61 0
-55 -97 -13 -49 0
-55 -97 -61 -49 0
-55 -13 -61 -49 0
-56 -98 -14 -62 0
-56 -98 -14 -50 0
-56 -98 -62 -50 0
-56 -14 -62 -50 0
-57 -99 -15 -63 0
-57 -99 -15 -51 0
-57 -99 -63 -51 0
-57 -15 -63 -51 0
-58 -100 -16 -64 0
-58 -100 -16 -52 0
-58 -100 -64 -52 0
-58 -16 -64 -52 0
-59 -101 -17 -65 0
-59 -101 -17 -53 0
-59 -101 -65 -53 0
-59 -17 -65 -53 0
-60 -102 -18 -66 0
-60 -102 -18 -54 0
-60 -102 -66 -54 0
-60 -18 -66 -54 0
-61 -62 0
-61 -63 0
-61 -64 0
-61 -65 0
-61 -66 0
-62 -63 0
-62 -64 0
-62 -65 0
-62 -66 0
-63 -64 0
-63 -65 0
-63 -66 0
-64 -65 0
-64 -66 0
-65 -66 0
-61 103 19 67 0
-61 103 19 55 0
-61 103 67 55 0
-61 19 67 55 0
-62 104 20 68 0
-62 104 20 56 0
-62 104 68 56 0
-62 20 68 56 0
-63 105 21 69 0
-63 105 21 57 0
-63 105 69 57 0
-63 21 69 57 0
-64 106 22 70 0
-64 106 22 58 0
-64 106 70 58 0
-64 22 70 58 0
-65 107 23 71 0
-65 107 23 59 0
-65 107 71 59 0
-65 23 71 59 0
-66 108 24 72 0
-66 108 24 60 0
-66 108 72 60 0
-66 24 72 60 0
-61 -103 -19 -67 0
-61 -103 -19 -55 0
-61 -103 -67 -55 0
-61 -19 -67 -55 0
-62 -104 -20 -68 0
-62 -104 -20 -56 0
-62 -104 -68 -56 0
-62 -20 -68 -56 0
-63 -105 -21 -69 0
-63 -105 -21 -57 0
-63 -105 -69 -57 0
-63 -21 -69 -57 0
-64 -106 -22 -70 0
-64 -106 -22 -58 0
-64 -106 -70 -58 0
-64 -22 -70 -58 0
-65 -107 -23 -71 0
-65 -107 -23 -59 0
-65 -107 -71 -59 0
-65 -23 -71 -59 0
-66 -108 -24 -72 0
-66 -108 -24 -60 0
-66 -108 -72 -60 0
-66 -24 -72 -60 0
72 0
-67 0
-68 0
-69 0
-70 0
-71 0
114 30 78 66 0
-114 -30 0
-114 -78 0
-114 -66 0
-30 -78 0
-30 -66 0
-78 -66 0
75 0
-73 0
-74 0
-76 0
-77 0
-78 0
117 33 81 69 0
-117 -33 0
-117 -81 0
-117 -69 0
-33 -81 0
-33 -69 0
-81 -69 0
-79 -80 0
-79 -81 0
-79 -82 0
-79 -83 0
-79 -84 0
-80 -81 0
-80 -82 0
-80 -83 0
-80 -84 0
-81 -82 0
-81 -83 0
-81 -84 0
-82 -83 0
-82 -84 0
-83 -84 0
-79 121 37 0
-79 121 73 0
-79 37 73 0
-80 122 38 0
-80 122 74 0
-80 38 74 0
-81 123 39 0
-81 123 75 0
-81 39 75 0
-82 124 40 0
-82 124 76 0
-82 40 76 0
-83 125 41 0
-83 125 77 0
-83 41 77 0
-84 126 42 0
-84 126 78 0
-84 42 78 0
-79 -121 -37 -73 0
-80 -122 -38 -74 0
-81 -123 -39 -75 0
-82 -124 -40 -76 0
-83 -125 -41 -77 0
-84 -126 -42 -78 0
-85 -86 0
-85 -87 0
-85 -88 0
-85 -89 0
-85 -90 0
-86 -87 0
-86 -88 0
-86 -89 0
-86 -90 0
-87 -88 0
-87 -89 0
-87 -90 0
-88 -89 0
-88 -90 0
-89 -90 0
-85 127 43 0
-85 127 91 0
-85 43 91 0
-86 128 44 0
-86 128 92 0
-86 44 92 0
-87 129 45 0
-87 129 93 0
-87 45 93 0
-88 130 46 0
-88 130 94 0
-88 46 94 0
-89 131 47 0
-89 131 95 0
-89 47 95 0
-90 132 48 0
-90 132 96 0
-90 48 96 0
-85 -127 -43 -91 0
-86 -128 -44 -92 0
-87 -129 -45 -93 0
-88 -130 -46 -94 0
-89 -131 -47 -95 0
-90 -132 -48 -96 0
-91 -92 0
-91 -93 0
-91 -94 0
-91 -95 0
-91 -96 0
-92 -93 0
-92 -94 0
-92 -95 0
-92 -96 0
-93 -94 0
-93 -95 0
-93 -96 0
-94 -95 0
-94 -96 0
-95 -96 0
-91 133 49 97 0
-91 133 49 85 0
-91 133 97 85 0
-91 49 97 85 0
-92 134 50 98 0
-92 134 50 86 0
-92 134 98 86 0
-92 50 98 86 0
-93 135 51 99 0
-93 135 51 87 0
-93 135 99 87 0
-93 51 99 87 0
-94 136 52 100 0
-94 136 52 88 0
-94 136 100 88 0
-94 52 100 88 0
-95 137 53 101 0
-95 137 53 89 0
-95 137 101 89 0
-95 53 101 89 0
-96 138 54 102 0
-96 138 54 90 0
-96 138 102 90 0
-96 54 102 90 0
-91 -133 -49 -97 0
-91 -133 -49 -85 0
-91 -133 -97 -85 0
-91 -49 -97 -85 0
-92 -134 -50 -98 0
-92 -134 -50 -86 0
-92 -134 -98 -86 0
-92 -50 -98 -86 0
-93 -135 -51 -99 0
-93 -135 -51 -87 0
-93 -135 -99 -87 0
-93 -51 -99 -87 0
-94 -136 -52 -100 0
-94 -136 -52 -88 0
-94 -136 -100 -88 0
-94 -52 -100 -88 0
-95 -137 -53 -101 0
-95 -137 -53 -89 0
-95 -137 -101 -89 0
-95 -53 -101 -89 0
-96 -138 -54 -102 0
-96 -138 -54 -90 0
-96 -138 -102 -90 0
-96 -54 -102 -90 0
101 0
-97 0
-98 0
-99 0
-100 0
-102 0
143 59 107 95 0
-143 -59 0
-143 -107 0
-143 -95 0
-59 -107 0
-59 -95 0
-107 -95 0
-103 -104 0
-103 -105 0
-103 -106 0
-103 -107 0
-103 -108 0
-104 -105 0
-104 -106 0
-104 -107 0
-104 -108 0
-105 -106 0
-105 -107 0
-105 -108 0
-106 -107 0
-106 -108 0
-107 -108 0
-103 145 61 109 0
-103 145 61 97 0
-103 145 109 97 0
-103 61 109 97 0
-104 146 62 110 0
-104 146 62 98 0
-104 146 110 98 0
-104 62 110 98 0
-105 147 63 111 0
-105 147 63 99 0
-105 147 111 99 0
-105 63 111 99 0
-106 148 64 112 0
-106 148 64 100 0
-106 148 112 100 0
-106 64 112 100 0
-107 149 65 113 0
-107 149 65 101 0
-107 149 113 101 0
-107 65 113 101 0
-108 150 66 114 0
-108 150 66 102 0
-108 150 114 102 0
-108 66 114 102 0
-103 -145 -61 -109 0
-103 -145 -61 -97 0
-103 -145 -109 -97 0
-103 -61 -109 -97 0
-104 -146 -62 -110 0
-104 -146 -62 -98 0
-104 -146 -110 -98 0
-104 -62 -110 -98 0
-105 -147 -63 -111 0
-105 -147 -63 -99 0
-105 -147 -111 -99 0
-105 -63 -111 -99 0
-106 -148 -64 -112 0
-106 -148 -64 -100 0
-106 -148 -112 -100 0
-106 -64 -112 -100 0
-107 -149 -65 -113 0
-107 -149 -65 -101 0
-107 -149 -113 -101 0
-107 -65 -113 -101 0
-108 -150 -66 -114 0
-108 -150 -66 -102 0
-108 -150 -114 -102 0
-108 -66 -114 -102 0
-109 -110 0
-109 -111 0
-109 -112 0
-109 -113 0
-109 -114 0
-110 -111 0
-110 -112 0
-110 -113 0
-110 -114 0
-111 -112 0
-111 -113 0
-111 -114 0
-112 -113 0
-112 -114 0
-113 -114 0
-109 151 67 115 0
-109 151 67 103 0
-109 151 115 103 0
-109 67 115 103 0
-110 152 68 116 0
-110 152 68 104 0
-110 152 116 104 0
-110 68 116 104 0
-111 153 69 117 0
-111 153 69 105 0
-111 153 117 105 0
-111 69 117 105 0
-112 154 70 118 0
-112 154 70 106 0
-112 154 118 106 0
-112 70 118 106 0
-113 155 71 119 0
-113 155 71 107 0
-113 155 119 107 0
-113 71 119 107 0
-114 156 72 120 0
-114 156 72 108 0
-114 156 120 108 0
-114 72 120 108 0
-109 -151 -67 -115 0
-109 -151 -67 -103 0
-109 -151 -115 -103 0
-109 -67 -115 -103 0
-110 -152 -68 -116 0
-110 -152 -68 -104 0
-110 -152 -116 -104 0
-110 -68 -116 -104 0
-111 -153 -69 -117 0
-111 -153 -69 -105 0
-111 -153 -117 -105 0
-111 -69 -117 -105 0
-112 -154 -70 -118 0
-112 -154 -70 -106 0
-112 -154 -118 -106 0
-112 -70 -118 -106 0
-113 -155 -71 -119 0
-113 -155 -71 -107 0
-113 -155 -119 -107 0
-113 -71 -119 -107 0
-114 -156 -72 -120 0
-114 -156 -72 -108 0
-114 -156 -120 -108 0
-114 -72 -120 -108 0
-115 -116 0
-115 -117 0
-115 -118 0
-115 -119 0
-115 -120 0
-116 -117 0
-116 -118 0
-116 -119 0
-116 -120 0
-117 -118 0
-117 -119 0
-117 -120 0
-118 -119 0
-118 -120 0
-119 -120 0
-115 157 73 121 0
-115 157 73 109 0
-115 157 121 109 0
-115 73 121 109 0
-116 158 74 122 0
-116 158 74 110 0
-116 158 122 110 0
-116 74 122 110 0
-117 159 75 123 0
-117 159 75 111 0
-117 159 123 111 0
-117 75 123 111 0
-118 160 76 124 0
-118 160 76 112 0
-118 160 124 112 0
-118 76 124 112 0
-119 161 77 125 0
-119 161 77 113 0
-119 161 125 113 0
-119 77 125 113 0
-120 162 78 126 0
-120 162 78 114 0
-120 162 126 114 0
-120 78 126 114 0
-115 -157 -73 -121 0
-115 -157 -73 -109 0
-115 -157 -121 -109 0
-115 -73 -121 -109 0
-116 -158 -74 -122 0
-116 -158 -74 -110 0
-116 -158 -122 -110 0
-116 -74 -122 -110 0
-117 -159 -75 -123 0
-117 -159 -75 -111 0
-117 -159 -123 -111 0
-117 -75 -123 -111 0
-118 -160 -76 -124 0
-118 -160 -76 -112 0
-118 -160 -124 -112 0
-118 -76 -124 -112 0
-119 -161 -77 -125 0
-119 -161 -77 -113 0
-119 -161 -125 -113 0
-119 -77 -125 -113 0
-120 -162 -78 -126 0
-120 -162 -78 -114 0
-120 -162 -126 -114 0
-120 -78 -126 -114 0
-121 -122 0
-121 -123 0
-121 -124 0
-121 -125 0
-121 -126 0
-122 -123 0
-122 -124 0
-122 -125 0
-122 -126 0
-123 -124 0
-123 -125 0
-123 -126 0
-124 -125 0
-124 -126 0
-125 -126 0
-121 163 79 0
-121 163 115 0
-121 79 115 0
-122 164 80 0
-122 164 116 0
-122 80 116 0
-123 165 81 0
-123 165 117 0
-123 81 117 0
-124 166 82 0
-124 166 118 0
-124 82 118 0
-125 167 83 0
-125 167 119 0
-125 83 119 0
-126 168 84 0
-126 168 120 0
-126 84 120 0
-121 -163 -79 -115 0
-122 -164 -80 -116 0
-123 -165 -81 -117 0
-124 -166 -82 -118 0
-125 -167 -83 -119 0
-126 -168 -84 -120 0
-127 -128 0
-127 -129 0
-127 -130 0
-127 -131 0
-127 -132 0
-128 -129 0
-128 -130 0
-128 -131 0
-128 -132 0
-129 -130 0
-129 -131 0
-129 -132 0
-130 -131 0
-130 -132 0
-131 -132 0
-127 169 85 0
-127 169 133 0
-127 85 133 0
-128 170 86 0
-128 170 134 0
-128 86 134 0
-129 171 87 0
-129 171 135 0
-129 87 135 0
-130 172 88 0
-130 172 136 0
-130 88 136 0
-131 173 89 0
-131 173 137 0
-131 89 137 0
-132 174 90 0
-132 174 138 0
-132 90 138 0
-127 -169 -85 -133 0
-128 -170 -86 -134 0
-129 -171 -87 -135 0
-130 -172 -88 -136 0
-131 -173 -89 -137 0
-132 -174 -90 -138 0
-133 -134 0
-133 -135 0
-133 -136 0
-133 -137 0
-133 -138 0
-134 -135 0
-134 -136 0
-134 -137 0
-134 -138 0
-135 -136 0
-135 -137 0
-135 -138 0
-136 -137 0
-136 -138 0
-137 -138 0
-133 175 91 139 0
-133 175 91 127 0
-133 175 139 127 0
-133 91 139 127 0
-134 176 92 140 0
-134 176 92 128 0
-134 176 140 128 0
-134 92 140 128 0
-135 177 93 141 0
-135 177 93 129 0
-135 177 141 129 0
-135 93 141 129 0
-136 178 94 142 0
-136 178 94 130 0
-136 178 142 130 0
-136 94 142 130 0
-137 179 95 143 0
-137 179 95 131 0
-137 179 143 131 0
-137 95 143 131 0
-138 180 96 144 0
-138 180 96 132 0
-138 180 144 132 0
-138 96 144 132 0
-133 -175 -91 -139 0
-133 -175 -91 -127 0
-133 -175 -139 -127 0
-133 -91 -139 -127 0
-134 -176 -92 -140 0
-134 -176 -92 -128 0
-134 -176 -140 -128 0
-134 -92 -140 -128 0
-135 -177 -93 -141 0
-135 -177 -93 -129 0
-135 -177 -141 -129 0
-135 -93 -141 -129 0
-136 -178 -94 -142 0
-136 -178 -94 -130 0
-136 -178 -142 -130 0
-136 -94 -142 -130 0
-137 -179 -95 -143 0
-137 -179 -95 -131 0
-137 -179 -143 -131 0
-137 -95 -143 -131 0
-138 -180 -96 -144 0
-138 -180 -96 -132 0
-138 -180 -144 -132 0
-138 -96 -144 -132 0
-139 -140 0
-139 -141 0
-139 -142 0
-139 -143 0
-139 -144 0
-140 -141 0
-140 -142 0
-140 -143 0
-140 -144 0
-141 -142 0
-141 -143 0
-141 -144 0
-142 -143 0
-142 -144 0
-143 -144 0
-139 181 97 145 0
-139 181 97 133 0
-139 181 145 133 0
-139 97 145 133 0
-140 182 98 146 0
-140 182 98 134 0
-140 182 146 134 0
-140 98 146 134 0
-141 183 99 147 0
-141 183 99 135 0
-141 183 147 135 0
-141 99 147 135 0
-142 184 100 148 0
-142 184 100 136 0
-142 184 148 136 0
-142 100 148 136 0
-143 185 101 149 0
-143 185 101 137 0
-143 185 149 137 0
-143 101 149 137 0
-144 186 102 150 0
-144 186 102 138 0
-144 186 150 138 0
-144 102 150 138 0
-139 -181 -97 -145 0
-139 -181 -97 -133 0
-139 -181 -145 -133 0
-139 -97 -145 -133 0
-140 -182 -98 -146 0
-140 -182 -98 -134 0
-140 -182 -146 -134 0
-140 -98 -146 -134 0
-141 -183 -99 -147 0
-141 -183 -99 -135 0
-141 -183 -147 -135 0
-141 -99 -147 -135 0
-142 -184 -100 -148 0
-142 -184 -100 -136 0
-142 -184 -148 -136 0
-142 -100 -148 -136 0
-143 -185 -101 -149 0
-143 -185 -101 -137 0
-143 -185 -149 -137 0
-143 -101 -149 -137 0
-144 -186 -102 -150 0
-144 -186 -102 -138 0
-144 -186 -150 -138 0
-144 -102 -150 -138 0
-145 -146 0
-145 -147 0
-145 -148 0
-145 -149 0
-145 -150 0
-146 -147 0
-146 -148 0
-146 -149 0
-146 -150 0
-147 -148 0
-147 -149 0
-147 -150 0
-148 -149 0
-148 -150 0
-149 -150 0
-145 187 103 151 0
-145 187 103 139 0
-145 187 151 139 0
-145 103 151 139 0
-146 188 104 152 0
-146 188 104 140 0
-146 188 152 140 0
-146 104 152 140 0
-147 189 105 153 0
-147 189 105 141 0
-147 189 153 141 0
-147 105 153 141 0
-148 190 106 154 0
-148 190 106 142 0
-148 190 154 142 0
-148 106 154 142 0
-149 191 107 155 0
-149 191 107 143 0
-149 191 155 143 0
-149 107 155 143 0
-150 192 108 156 0
-150 192 108 144 0
-150 192 156 144 0
-150 108 156 144 0
-145 -187 -103 -151 0
-145 -187 -103 -139 0
-145 -187 -151 -139 0
-145 -103 -151 -139 0
-146 -188 -104 -152 0
-146 -188 -104 -140 0
-146 -188 -152 -140 0
-146 -104 -152 -140 0
-147 -189 -105 -153 0
-147 -189 -105 -141 0
-147 -189 -153 -141 0
-147 -105 -153 -141 0
-148 -190 -106 -154 0
-148 -190 -106 -142 0
-148 -190 -154 -142 0
-148 -106 -154 -142 0
-149 -191 -107 -155 0
-149 -191 -107 -143 0
-149 -191 -155 -143 0
-149 -107 -155 -143 0
-150 -192 -108 -156 0
-150 -192 -108 -144 0
-150 -192 -156 -144 0
-150 -108 -156 -144 0
152 0
-151 0
-153 0
-154 0
-155 0
-156 0
194 110 158 146 0
-194 -110 0
-194 -158 0
-194 -146 0
-110 -158 0
-110 -146 0
-158 -146 0
160 0
-157 0
-158 0
-159 0
-161 0
-162 0
202 118 166 154 0
-202 -118 0
-202 -166 0
-202 -154 0
-118 -166 0
-118 -154 0
-166 -154 0
-163 -164 0
-163 -165 0
-163 -166 0
-163 -167 0
-163 -168 0
-164 -165 0
-164 -166 0
-164 -167 0
-164 -168 0
-165 -166 0
-165 -167 0
-165 -168 0
-166 -167 0
-166 -168 0
-167 -168 0
-163 205 121 0
-163 205 157 0
-163 121 157 0
-164 206 122 0
-164 206 158 0
-164 122 158 0
-165 207 123 0
-165 207 159 0
-165 123 159 0
-166 208 124 0
-166 208 160 0
-166 124 160 0
-167 209 125 0
-167 209 161 0
-167 125 161 0
-168 210 126 0
-168 210 162 0
-168 126 162 0
-163 -205 -121 -157 0
-164 -206 -122 -158 0
-165 -207 -123 -159 0
-166 -208 -124 -160 0
-167 -209 -125 -161 0
-168 -210 -126 -162 0
-169 -170 0
-169 -171 0
-169 -172 0
-169 -173 0
-169 -174 0
-170 -171 0
-170 -172 0
-170 -173 0
-170 -174 0
-171 -172 0
-171 -173 0
-171 -174 0
-172 -173 0
-172 -174 0
-173 -174 0
-169 211 127 0
-169 211 175 0
-169 127 175 0
-170 212 128 0
-170 212 176 0
-170 128 176 0
-171 213 129 0
-171 213 177 0
-171 129 177 0
-172 214 130 0
-172 214 178 0
-172 130 178 0
-173 215 131 0
-173 215 179 0
-173 131 179 0
-174 216 132 0
-174 216 180 0
-174 132 180 0
-169 -211 -127 -175 0
-170 -212 -128 -176 0
-171 -213 -129 -177 0
-172 -214 -130 -178 0
-173 -215 -131 -179 0
-174 -216 -132 -180 0
-175 -176 0
-175 -177 0
-175 -178 0
-175 -179 0
-175 -180 0
-176 -177 0
-176 -178 0
-176 -179 0
-176 -180 0
-177 -178 0
-177 -179 0
-177 -180 0
-178 -179 0
-178 -180 0
-179 -180 0
-175 217 133 181 0
-175 217 133 169 0
-175 217 181 169 0
-175 133 181 169 0
-176 218 134 182 0
-176 218 134 170 0
-176 218 182 170 0
-176 134 182 170 0
-177 219 135 183 0
-177 219 135 171 0
-177 219 183 171 0
-177 135 183 171 0
-178 220 136 184 0
-178 220 136 172 0
-178 220 184 172 0
-178 136 184 172 0
-179 221 137 185 0
-179 221 137 173 0
-179 221 185 173 0
-179 137 185 173 0
-180 222 138 186 0
-180 222 138 174 0
-180 222 186 174 0
-180 138 186 174 0
-175 -217 -133 -181 0
-175 -217 -133 -169 0
-175 -217 -181 -169 0
-175 -133 -181 -169 0
-176 -218 -134 -182 0
-176 -218 -134 -170 0
-176 -218 -182 -170 0
-176 -134 -182 -170 0
-177 -219 -135 -183 0
-177 -219 -135 -171 0
-177 -219 -183 -171 0
-177 -135 -183 -171 0
-178 -220 -136 -184 0
-178 -220 -136 -172 0
-178 -220 -184 -172 0
-178 -136 -184 -172 0
-179 -221 -137 -185 0
-179 -221 -137 -173 0
-179 -221 -185 -173 0
-179 -137 -185 -173 0
-180 -222 -138 -186 0
-180 -222 -138 -174 0
-180 -222 -186 -174 0
-180 -138 -186 -174 0
-181 -182 0
-181 -183 0
-181 -184 0
-181 -185 0
-181 -186 0
-182 -183 0
-182 -184 0
-182 -185 0
-182 -186 0
-183 -184 0
-183 -185 0
-183 -186 0
-184 -185 0
-184 -186 0
-185 -186 0
-181 223 139 187 0
-181 223 139 175 0
-181 223 187 175 0
-181 139 187 175 0
-182 224 140 188 0
-182 224 140 176 0
-182 224 188 176 0
-182 140 188 176 0
-183 225 141 189 0
-183 225 141 177 0
-183 225 189 177 0
-183 141 189 177 0
-184 226 142 190 0
-184 226 142 178 0
-184 226 190 178 0
-184 142 190 178 0
-185 227 143 191 0
-185 227 143 179 0
-185 227 191 179 0
-185 143 191 179 0
-186 228 144 192 0
-186 228 144 180 0
-186 228 192 180 0
-186 144 192 180 0
-181 -223 -139 -187 0
-181 -223 -139 -175 0
-181 -223 -187 -175 0
-181 -139 -187 -175 0
-182 -224 -140 -188 0
-182 -224 -140 -176 0
-182 -224 -188 -176 0
-182 -140 -188 -176 0
-183 -225 -141 -189 0
-183 -225 -141 -177 0
-183 -225 -189 -177 0
-183 -141 -189 -177 0
-184 -226 -142 -190 0
-184 -226 -142 -178 0
-184 -226 -190 -178 0
-184 -142 -190 -178 0
-185 -227 -143 -191 0
-185 -227 -143 -179 0
-185 -227 -191 -179 0
-185 -143 -191 -179 0
-186 -228 -144 -192 0
-186 -228 -144 -180 0
-186 -228 -192 -180 0
-186 -144 -192 -180 0
-187 -188 0
-187 -189 0
-187 -190 0
-187 -191 0
-187 -192 0
-188 -189 0
-188 -190 0
-188 -191 0
-188 -192 0
-189 -190 0
-189 -191 0
-189 -192 0
-190 -191 0
-190 -192 0
-191 -192 0
-187 229 145 193 0
-187 229 145 181 0
-187 229 193 181 0
-187 145 193 181 0
-188 230 146 194 0
-188 230 146 182 0
-188 230 194 182 0
-188 146 194 182 0
-189 231 147 195 0
-189 231 147 183 0
-189 231 195 183 0
-189 147 195 183 0
-190 232 148 196 0
-190 232 148 184 0
-190 232 196 184 0
-190 148 196 184 0
-191 233 149 197 0
-191 233 149 185 0
-191 233 197 185 0
-191 149 197 185 0
-192 234 150 198 0
-192 234 150 186 0
-192 234 198 186 0
-192 150 198 186 0
-187 -229 -145 -193 0
-187 -229 -145 -181 0
-187 -229 -193 -181 0
-187 -145 -193 -181 0
-188 -230 -146 -194 0
-188 -230 -146 -182 0
-188 -230 -194 -182 0
-188 -146 -194 -182 0
-189 -231 -147 -195 0
-189 -231 -147 -183 0
-189 -231 -195 -183 0
-189 -147 -195 -183 0
-190 -232 -148 -196 0
-190 -232 -148 -184 0
-190 -232 -196 -184 0
-190 -148 -196 -184 0
-191 -233 -149 -197 0
-191 -233 -149 -185 0
-191 -233 -197 -185 0
-191 -149 -197 -185 0
-192 -234 -150 -198 0
-192 -234 -150 -186 0
-192 -234 -198 -186 0
-192 -150 -198 -186 0
-193 -194 0
-193 -195 0
-193 -196 0
-193 -197 0
-193 -198 0
-194 -195 0
-194 -196 0
-194 -197 0
-194 -198 0
-195 -196 0
-195 -197 0
-195 -198 0
-196 -197 0
-196 -198 0
-197 -198 0
-193 235 151 199 0
-193 235 151 187 0
-193 235 199 187 0
-193 151 199 187 0
-194 236 152 200 0
-194 236 152 188 0
-194 236 200 188 0
-194 152 200 188 0
-195 237 153 201 0
-195 237 153 189 0
-195 237 201 189 0
-195 153 201 189 0
-196 238 154 202 0
-196 238 154 190 0
-196 238 202 190 0
-196 154 202 190 0
-197 239 155 203 0
-197 239 155 191 0
-197 239 203 191 0
-197 155 203 191 0
-198 240 156 204 0
-198 240 156 192 0
-198 240 204 192 0
-198 156 204 192 0
-193 -235 -151 -199 0
-193 -235 -151 -187 0
-193 -235 -199 -187 0
-193 -151 -199 -187 0
-194 -236 -152 -200 0
-194 -236 -152 -188 0
-194 -236 -200 -188 0
-194 -152 -200 -188 0
-195 -237 -153 -201 0
-195 -237 -153 -189 0
-195 -237 -201 -189 0
-195 -153 -201 -189 0
-196 -238 -154 -202 0
-196 -238 -154 -190 0
-196 -238 -202 -190 0
-196 -154 -202 -190 0
-197 -239 -155 -203 0
-197 -239 -155 -191 0
-197 -239 -203 -191 0
-197 -155 -203 -191 0
-198 -240 -156 -204 0
-198 -240 -156 -192 0
-198 -240 -204 -192 0
-198 -156 -204 -192 0
-199 -200 0
-199 -201 0
-199 -202 0
-199 -203 0
-199 -204 0
-200 -201 0
-200 -202 0
-200 -203 0
-200 -204 0
-201 -202 0
-201 -203 0
-201 -204 0
-202 -203 0
-202 -204 0
-203 -204 0
-199 241 157 205 0
-199 241 157 193 0
-199 241 205 193 0
-199 157 205 193 0
-200 242 158 206 0
-200 242 158 194 0
-200 242 206 194 0
-200 158 206 194 0
-201 243 159 207 0
-201 243 159 195 0
-201 243 207 195 0
-201 159 207 195 0
-202 244 160 208 0
-202 244 160 196 0
-202 244 208 196 0
-202 160 208 196 0
-203 245 161 209 0
-203 245 161 197 0
-203 245 209 197 0
-203 161 209 197 0
-204 246 162 210 0
-204 246 162 198 0
-204 246 210 198 0
-204 162 210 198 0
-199 -241 -157 -205 0
-199 -241 -157 -193 0
-199 -241 -205 -193 0
-199 -157 -205 -193 0
-200 -242 -158 -206 0
-200 -242 -158 -194 0
-200 -242 -206 -194 0
-200 -158 -206 -194 0
-201 -243 -159 -207 0
-201 -243 -159 -195 0
-201 -243 -207 -195 0
-201 -159 -207 -195 0
-202 -244 -160 -208 0
-202 -244 -160 -196 0
-202 -244 -208 -196 0
-202 -160 -208 -196 0
-203 -245 -161 -209 0
-203 -245 -161 -197 0
-203 -245 -209 -197 0
-203 -161 -209 -197 0
-204 -246 -162 -210 0
-204 -246 -162 -198 0
-204 -246 -210 -198 0
-204 -162 -210 -198 0
-205 -206 0
-205 -207 0
-205 -208 0
-205 -209 0
-205 -210 0
-206 -207 0
-206 -208 0
-206 -209 0
-206 -210 0
-207 -208 0
-207 -209 0
-207 -210 0
-208 -209 0
-208 -210 0
-209 -210 0
-205 247 163 0
-205 247 199 0
-205 163 199 0
-206 248 164 0
-206 248 200 0
-206 164 200 0
-207 249 165 0
-207 249 201 0
-207 165 201 0
-208 250 166 0
-208 250 202 0
-208 166 202 0
-209 251 167 0
-209 251 203 0
-209 167 203 0
-210 252 168 0
-210 252 204 0
-210 168 204 0
-205 -247 -163 -199 0
-206 -248 -164 -200 0
-207 -249 -165 -201 0
-208 -250 -166 -202 0
-209 -251 -167 -203 0
-210 -252 -168 -204 0
215 0
-211 0
-212 0
-213 0
-214 0
-216 0
257 173 221 0
-257 -173 0
-257 -221 0
-173 -221 0
-217 -218 0
-217 -219 0
-217 -220 0
-217 -221 0
-217 -222 0
-218 -219 0
-218 -220 0
-218 -221 0
-218 -222 0
-219 -220 0
-219 -221 0
-219 -222 0
-220 -221 0
-220 -222 0
-221 -222 0
-217 259 175 223 0
-217 259 175 211 0
-217 259 223 211 0
-217 175 223 211 0
-218 260 176 224 0
-218 260 176 212 0
-218 260 224 212 0
-218 176 224 212 0
-219 261 177 225 0
-219 261 177 213 0
-219 261 225 213 0
-219 177 225 213 0
-220 262 178 226 0
-220 262 178 214 0
-220 262 226 214 0
-220 178 226 214 0
-221 263 179 227 0
-221 263 179 215 0
-221 263 227 215 0
-221 179 227 215 0
-222 264 180 228 0
-222 264 180 216 0
-222 264 228 216 0
-222 180 228 216 0
-217 -259 -175 -223 0
-217 -259 -175 -211 0
-217 -259 -223 -211 0
-217 -175 -223 -211 0
-218 -260 -176 -224 0
-218 -260 -176 -212 0
-218 -260 -224 -212 0
-218 -176 -224 -212 0
-219 -261 -177 -225 0
-219 -261 -177 -213 0
-219 -261 -225 -213 0
-219 -177 -225 -213 0
-220 -262 -178 -226 0
-220 -262 -178 -214 0
-220 -262 -226 -214 0
-220 -178 -226 -214 0
-221 -263 -179 -227 0
-221 -263 -179 -215 0
-221 -263 -227 -215 0
-221 -179 -227 -215 0
-222 -264 -180 -228 0
-222 -264 -180 -216 0
-222 -264 -228 -216 0
-222 -180 -228 -216 0
-223 -224 0
-223 -225 0
-223 -226 0
-223 -227 0
-223 -228 0
-224 -225 0
-224 -226 0
-224 -227 0
-224 -228 0
-225 -226 0
-225 -227 0
-225 -228 0
-226 -227 0
-226 -228 0
-227 -228 0
-223 265 181 229 0
-223 265 181 217 0
-223 265 229 217 0
-223 181 229 217 0
-224 266 182 230 0
-224 266 182 218 0
-224 266 230 218 0
-224 182 230 218 0
-225 267 183 231 0
-225 267 183 219 0
-225 267 231 219 0
-225 183 231 219 0
-226 268 184 232 0
-226 268 184 220 0
-226 268 232 220 0
-226 184 232 220 0
-227 269 185 233 0
-227 269 185 221 0
-227 269 233 221 0
-227 185 233 221 0
-228 270 186 234 0
-228 270 186 222 0
-228 270 234 222 0
-228 186 234 222 0
-223 -265 -181 -229 0
-223 -265 -181 -217 0
-223 -265 -229 -217 0
-223 -181 -229 -217 0
-224 -266 -182 -230 0
-224 -266 -182 -218 0
-224 -266 -230 -218 0
-224 -182 -230 -218 0
-225 -267 -183 -231 0
-225 -267 -183 -219 0
-225 -267 -231 -219 0
-225 -183 -231 -219 0
-226 -268 -184 -232 0
-226 -268 -184 -220 0
-226 -268 -232 -220 0
-226 -184 -232 -220 0
-227 -269 -185 -233 0
-227 -269 -185 -221 0
-227 -269 -233 -221 0
-227 -185 -233 -221 0
-228 -270 -186 -234 0
-228 -270 -186 -222 0
-228 -270 -234 -222 0
-228 -186 -234 -222 0
232 0
-229 0
-230 0
-231 0
-233 0
-234 0
274 190 238 226 0
-274 -190 0
-274 -238 0
-274 -226 0
-190 -238 0
-190 -226 0
-238 -226 0
-235 -236 0
-235 -237 0
-235 -238 0
-235 -239 0
-235 -240 0
-236 -237 0
-236 -238 0
-236 -239 0
-236 -240 0
-237 -238 0
-237 -239 0
-237 -240 0
-238 -239 0
-238 -240 0
-239 -240 0
-235 277 193 241 0
-235 277 193 229 0
-235 277 241 229 0
-235 193 241 229 0
-236 278 194 242 0
-236 278 194 230 0
-236 278 242 230 0
-236 194 242 230 0
-237 279 195 243 0
-237 279 195 231 0
-237 279 243 231 0
-237 195 243 231 0
-238 280 196 244 0
-238 280 196 232 0
-238 280 244 232 0
-238 196 244 232 0
-239 281 197 245 0
-239 281 197 233 0
-239 281 245 233 0
-239 197 245 233 0
-240 282 198 246 0
-240 282 198 234 0
-240 282 246 234 0
-240 198 246 234 0
-235 -277 -193 -241 0
-235 -277 -193 -229 0
-235 -277 -241 -229 0
-235 -193 -241 -229 0
-236 -278 -194 -242 0
-236 -278 -194 -230 0
-236 -278 -242 -230 0
-236 -194 -242 -230 0
-237 -279 -195 -243 0
-237 -279 -195 -231 0
-237 -279 -243 -231 0
-237 -195 -243 -231 0
-238 -280 -196 -244 0
-238 -280 -196 -232 0
-238 -280 -244 -232 0
-238 -196 -244 -232 0
-239 -281 -197 -245 0
-239 -281 -197 -233 0
-239 -281 -245 -233 0
-239 -197 -245 -233 0
-240 -282 -198 -246 0
-240 -282 -198 -234 0
-240 -282 -246 -234 0
-240 -198 -246 -234 0
-241 -242 0
-241 -243 0
-241 -244 0
-241 -245 0
-241 -246 0
-242 -243 0
-242 -244 0
-242 -245 0
-242 -246 0
-243 -244 0
-243 -245 0
-243 -246 0
-244 -245 0
-244 -246 0
-245 -246 0
-241 283 199 247 0
-241 283 199 235 0
-241 283 247 235 0
-241 199 247 235 0
-242 284 200 248 0
-242 284 200 236 0
-242 284 248 236 0
-242 200 248 236 0
-243 285 201 249 0
-243 285 201 237 0
-243 285 249 237 0
-243 201 249 237 0
-244 286 202 250 0
-244 286 202 238 0
-244 286 250 238 0
-244 202 250 238 0
-245 287 203 251 0
-245 287 203 239 0
-245 287 251 239 0
-245 203 251 239 0
-246 288 204 252 0
-246 288 204 240 0
-246 288 252 240 0
-246 204 252 240 0
-241 -283 -199 -247 0
-241 -283 -199 -235 0
-241 -283 -247 -235 0
-241 -199 -247 -235 0
-242 -284 -200 -248 0
-242 -284 -200 -236 0
-242 -284 -248 -236 0
-242 -200 -248 -236 0
-243 -285 -201 -249 0
-243 -285 -201 -237 0
-243 -285 -249 -237 0
-243 -201 -249 -237 0
-244 -286 -202 -250 0
-244 -286 -202 -238 0
-244 -286 -250 -238 0
-244 -202 -250 -238 0
-245 -287 -203 -251 0
-245 -287 -203 -239 0
-245 -287 -251 -239 0
-245 -203 -251 -239 0
-246 -288 -204 -252 0
-246 -288 -204 -240 0
-246 -288 -252 -240 0
-246 -204 -252 -240 0
-247 -248 0
-247 -249 0
-247 -250 0
-247 -251 0
-247 -252 0
-248 -249 0
-248 -250 0
-248 -251 0
-248 -252 0
-249 -250 0
-249 -251 0
-249 -252 0
-250 -251 0
-250 -252 0
-251 -252 0
-247 289 205 0
-247 289 241 0
-247 205 241 0
-248 290 206 0
-248 290 242 0
-248 206 242 0
-249 291 207 0
-249 291 243 0
-249 207 243 0
-250 292 208 0
-250 292 244 0
-250 208 244 0
-251 293 209 0
-251 293 245 0
-251 209 245 0
-252 294 210 0
-252 294 246 0
-252 210 246 0
-247 -289 -205 -241 0
-248 -290 -206 -242 0
-249 -291 -207 -243 0
-250 -292 -208 -244 0
-251 -293 -209 -245 0
-252 -294 -210 -246 0
255 0
-253 0
-254 0
-256 0
-257 0
-258 0
213 261 0
-213 -261 0
-259 -260 0
-259 -261 0
-259 -262 0
-259 -263 0
-259 -264 0
-260 -261 0
-260 -262 0
-260 -263 0
-260 -264 0
-261 -262 0
-261 -263 0
-261 -264 0
-262 -263 0
-262 -264 0
-263 -264 0
-259 253 217 0
-259 217 265 0
-259 253 265 0
-260 254 218 0
-260 218 266 0
-260 254 266 0
-261 255 219 0
-261 219 267 0
-261 255 267 0
-262 256 220 0
-262 220 268 0
-262 256 268 0
-263 257 221 0
-263 221 269 0
-263 257 269 0
-264 258 222 0
-264 222 270 0
-264 258 270 0
-259 -217 -253 -265 0
-260 -218 -254 -266 0
-261 -219 -255 -267 0
-262 -220 -256 -268 0
-263 -221 -257 -269 0
-264 -222 -258 -270 0
-265 -266 0
-265 -267 0
-265 -268 0
-265 -269 0
-265 -270 0
-266 -267 0
-266 -268 0
-266 -269 0
-266 -270 0
-267 -268 0
-267 -269 0
-267 -270 0
-268 -269 0
-268 -270 0
-269 -270 0
-265 259 223 0
-265 223 271 0
-265 259 271 0
-266 260 224 0
-266 224 272 0
-266 260 272 0
-267 261 225 0
-267 225 273 0
-267 261 273 0
-268 262 226 0
-268 226 274 0
-268 262 274 0
-269 263 227 0
-269 227 275 0
-269 263 275 0
-270 264 228 0
-270 228 276 0
-270 264 276 0
-265 -223 -259 -271 0
-266 -224 -260 -272 0
-267 -225 -261 -273 0
-268 -226 -262 -274 0
-269 -227 -263 -275 0
-270 -228 -264 -276 0
-271 -272 0
-271 -273 0
-271 -274 0
-271 -275 0
-271 -276 0
-272 -273 0
-272 -274 0
-272 -275 0
-272 -276 0
-273 -274 0
-273 -275 0
-273 -276 0
-274 -275 0
-274 -276 0
-275 -276 0
-271 265 229 0
-271 229 277 0
-271 265 277 0
-272 266 230 0
-272 230 278 0
-272 266 278 0
-273 267 231 0
-273 231 279 0
-273 267 279 0
-274 268 232 0
-274 232 280 0
-274 268 280 0
-275 269 233 0
-275 233 281 0
-275 269 281 0
-276 270 234 0
-276 234 282 0
-276 270 282 0
-271 -229 -265 -277 0
-272 -230 -266 -278 0
-273 -231 -267 -279 0
-274 -232 -268 -280 0
-275 -233 -269 -281 0
-276 -234 -270 -282 0
-277 -278 0
-277 -279 0
-277 -280 0
-277 -281 0
-277 -282 0
-278 -279 0
-278 -280 0
-278 -281 0
-278 -282 0
-279 -280 0
-279 -281 0
-279 -282 0
-280 -281 0
-280 -282 0
-281 -282 0
-277 271 235 0
-277 235 283 0
-277 271 283 0
-278 272 236 0
-278 236 284 0
-278 272 284 0
-279 273 237 0
-279 237 285 0
-279 273 285 0
-280 274 238 0
-280 238 286 0
-280 274 286 0
-281 275 239 0
-281 239 287 0
-281 275 287 0
-282 276 240 0
-282 240 288 0
-282 276 288 0
-277 -235 -271 -283 0
-278 -236 -272 -284 0
-279 -237 -273 -285 0
-280 -238 -274 -286 0
-281 -239 -275 -287 0
-282 -240 -276 -288 0
-283 -284 0
-283 -285 0
-283 -286 0
-283 -287 0
-283 -288 0
-284 -285 0
-284 -286 0
-284 -287 0
-284 -288 0
-285 -286 0
-285 -287 0
-285 -288 0
-286 -287 0
-286 -288 0
-287 -288 0
-283 277 241 0
-283 241 289 0
-283 277 289 0
-284 278 242 0
-284 242 290 0
-284 278 290 0
-285 279 243 0
-285 243 291 0
-285 279 291 0
-286 280 244 0
-286 244 292 0
-286 280 292 0
-287 281 245 0
-287 245 293 0
-287 281 293 0
-288 282 246 0
-288 246 294 0
-288 282 294 0
-283 -241 -277 -289 0
-284 -242 -278 -290 0
-285 -243 -279 -291 0
-286 -244 -280 -292 0
-287 -245 -281 -293 0
-288 -246 -282 -294 0
-289 -290 0
-289 -291 0
-289 -292 0
-289 -293 0
-289 -294 0
-290 -291 0
-290 -292 0
-290 -293 0
-290 -294 0
-291 -292 0
-291 -293 0
-291 -294 0
-292 -293 0
-292 -294 0
-293 -294 0
-289 247 0
-289 283 0
-290 248 0
-290 284 0
-291 249 0
-291 285 0
-292 250 0
-292 286 0
-293 251 0
-293 287 0
-294 252 0
-294 288 0
7 49 91 133 175 217 259 0
13 55 139 181 223 265 0
19 61 103 145 187 271 0
50 56 62 80 0
86 92 104 110 116 122 0
87 93 105 111 117 123 0
129 135 141 147 165 0
171 177 183 189 195 201 207 0
219 225 237 243 249 0
9 51 93 135 177 219 261 0
15 57 141 183 225 267 0
21 63 105 147 189 273 0
111 195 237 279 0
172 178 184 190 196 202 208 0
112 196 238 280 0
131 137 143 149 167 0
173 179 185 191 197 203 209 0
11 53 95 137 179 221 263 0
12 54 96 138 180 222 264 0
18 60 144 186 228 270 0
24 66 108 150 192 276 0